71
100
80	16
79	9
78	13
77	16
76	11
75	9
74	14
73	16
72	21
71	15
70	13
69	14
68	22
67	13
66	13
65	11
64	12
63	13
62	15
61	12
60	7
59	11
58	16
57	18
56	12
55	14
54	17
53	15
52	15
51	9
50	9
49	15
48	18
47	16
46	13
45	17
44	10
43	15
42	19
41	19
40	13
39	14
38	14
37	20
36	6
35	13
34	16
33	14
32	18
31	9
30	25
29	15
28	14
27	14
26	13
25	17
24	14
23	10
22	17
21	14
20	13
19	19
18	12
17	7
16	16
15	9
14	14
13	12
12	16
11	13
10	16
